<instance format="XCSP3" type="CSP">
  <variables>
    <var id="x0"> 2 7 13 14 </var>
    <var id="x1"> 6 12 13 16 </var>
    <var id="x2"> 2 10 14 16 </var>
    <var id="x3"> 2 6 13 </var>
    <var id="x4"> 7 10 12 </var>
    <var id="x5"> 2 6 7 13 14 16 </var>
    <var id="x6"> 6 10 13 14 16 </var>
    <var id="x7"> 2 7 10 13 </var>
    <var id="x8"> 5 8 14 16 </var>
    <var id="x9"> 5 8 14 </var>
    <var id="x10"> 6 8 9 14 </var>
    <var id="x11"> 4 6 8 14..16 </var>
    <var id="x12"> 5 6 8 16 </var>
    <var id="x13"> 4..6 8 15 </var>
    <var id="x14"> 6 8 14 16 </var>
    <var id="x15"> 5 9 15 </var>
    <var id="x16"> 3 8 10 13 16 </var>
    <var id="x17"> 3 8 13 17 </var>
    <var id="x18"> 3 8 17 </var>
    <var id="x19"> 3 8 15 16 </var>
    <var id="x20"> 10 15 16 </var>
    <var id="x21"> 8 10 15 </var>
    <var id="x22"> 10 13 15 </var>
    <var id="x23"> 1 6 10 13 17 </var>
    <var id="x24"> 1..3 13 17 </var>
    <var id="x25"> 6 10 13 15 </var>
    <var id="x26"> 1..3 15 </var>
    <var id="x27"> 1 2 6 10 15 </var>
    <var id="x28"> 1 2 17 </var>
    <var id="x29"> 2 6 13 </var>
    <var id="x30"> 1 3 6 10 13 </var>
    <var id="x31"> 1 2 8 14 </var>
    <var id="x32"> 1 4 6 8 14 15 </var>
    <var id="x33"> 4 14 </var>
    <var id="x34"> 6 8 </var>
    <var id="x35"> 6 11 15 </var>
    <var id="x36"> 1 2 8 14 15 </var>
    <var id="x37"> 1 2 6 8 15 </var>
    <var id="x38"> 4 8 15 </var>
    <var id="x39"> 3 8 10 13 </var>
    <var id="x40"> 1 6 10 13 </var>
    <var id="x41"> 1 2 7 8 13 </var>
    <var id="x42"> 1..3 8 </var>
    <var id="x43"> 1 2 10 </var>
    <var id="x44"> 1 2 6 8 10 </var>
    <var id="x45"> 1 2 7 8 </var>
    <var id="x46"> 2 7 10 13 </var>
    <var id="x47"> 3 5 8 10 14 </var>
    <var id="x48"> 1 2 5 8 14 </var>
    <var id="x49"> 3..5 14 </var>
    <var id="x50"> 5 8 </var>
    <var id="x51"> 5 10 </var>
    <var id="x52"> 1..3 8 14 </var>
    <var id="x53"> 1 2 10 14 </var>
    <var id="x54"> 4 5 8 10 </var>
    <var id="x55"> 5 6 13 </var>
    <var id="x56"> 2 5 7 13 </var>
    <var id="x57"> 0 2 6 </var>
    <var id="x58"> 0 2 15 16 </var>
    <var id="x59"> 2 5 6 15 16 </var>
    <var id="x60"> 2 5 7 </var>
    <var id="x61"> 0 5 7 15 </var>
    <var id="x62"> 0 2 6 7 13 16 </var>
    <var id="x63"> 1 3 5 13 17 </var>
    <var id="x64"> 0 3 6 17 </var>
    <var id="x65"> 3 5 13 </var>
    <var id="x66"> 0 5 6 13 17 </var>
    <var id="x67"> 0 1 15 </var>
    <var id="x68"> 1 5 6 15 </var>
    <var id="x69"> 0 5 15 </var>
    <var id="x70"> 1 3 6 13 </var>
    <var id="x71"> 0 5 8 13 14 </var>
    <var id="x72"> 5 13 14 17 </var>
    <var id="x73"> 2 5 7 8 13 17 </var>
    <var id="x74"> 8 14 </var>
    <var id="x75"> 0 2 8 14 </var>
    <var id="x76"> 2 5 7 8 17 </var>
    <var id="x77"> 2 5 8 13 17 </var>
    <var id="x78"> 0 2 5 7 13 </var>
    <var id="x79"> 8 9 14 </var>
    <var id="x80"> 5 7 9 14 </var>
    <var id="x81"> 1 8 14 15 </var>
    <var id="x82"> 1 5 8 15 </var>
    <var id="x83"> 5 7 8 15 </var>
    <var id="x84"> 1 8 14 </var>
    <var id="x85"> 5 7 9 15 </var>
    <var id="x86"> 0 5 8 10 14 16 </var>
    <var id="x87"> 1 5 6 10 14 </var>
    <var id="x88"> 0 6 8 14 </var>
    <var id="x89"> 1 6 8 14 16 </var>
    <var id="x90"> 5 14 16 </var>
    <var id="x91"> 5 6 10 </var>
    <var id="x92"> 0 6 14 16 </var>
    <var id="x93"> 1 6 8 10 14 16 </var>
    <var id="x94"> 5 6 </var>
    <var id="x95"> 0 2 6 8 9 </var>
    <var id="x96"> 6 8 16 </var>
    <var id="x97"> 5 7 9 16 </var>
    <var id="x98"> 0 2 8 16 </var>
    <var id="x99"> 0 2 9 16 </var>
    <var id="x100"> 2 5 6 8 </var>
    <var id="x101"> 0 2 6 7 9 16 </var>
    <var id="x102"> 0 8 13 14 16 </var>
    <var id="x103"> 1 13 14 17 </var>
    <var id="x104"> 1 8 13 17 </var>
    <var id="x105"> 1 4 8 14 16 </var>
    <var id="x106"> 4 13 14 16 </var>
    <var id="x107"> 0 8 13 16 17 </var>
    <var id="x108"> 1 4 8 17 </var>
    <var id="x109"> 4 8 13 17 </var>
    <var id="x110"> 0 5 8 13 </var>
    <var id="x111"> 5 8 13 </var>
    <var id="x112"> 4 8 16 </var>
    <var id="x113"> 5 13 </var>
    <var id="x114"> 4 5 8 13 </var>
    <var id="x115"> 0 4 5 8 </var>
    <var id="x116"> 0 9 13 16 </var>
    <var id="x117"> 5 8 10 13 14 16 </var>
    <var id="x118"> 2 5 7 8 13 14 </var>
    <var id="x119"> 5 7 13 14 16 </var>
    <var id="x120"> 2 5 8 10 16 </var>
    <var id="x121"> 2 5 7 8 </var>
    <var id="x122"> 2 5 8 13 </var>
    <var id="x123"> 2 7 13 14 16 </var>
    <var id="x124"> 8 10 13 14 16 </var>
    <var id="x125"> 1 5 </var>
    <var id="x126"> 0 9 14 </var>
    <var id="x127"> 0 5 12 </var>
    <var id="x128"> 5 10 12 15 </var>
    <var id="x129"> 0 1 9 10 14 15 </var>
    <var id="x130"> 1 5 </var>
    <var id="x131"> 0 9 14 </var>
    <var id="x132"> 0 5 9 10 15 </var>
    <var id="x133"> 0 2 5 13 </var>
    <var id="x134"> 0 5 12 13 17 </var>
    <var id="x135"> 5 11..13 </var>
    <var id="x136"> 2 5 </var>
    <var id="x137"> 2 5 11 17 </var>
    <var id="x138"> 2 5 13 17 </var>
    <var id="x139"> 3 13 </var>
    <var id="x140"> 0 2 5 13 </var>
  </variables>
  <constraints>
    <group>
      <allDifferent> %... </allDifferent>
      <args> x0 x1 x2 x3 x4 x5 x6 x7 </args>
      <args> x8 x9 x10 x11 x12 x13 x14 x15 </args>
      <args> x16 x17 x18 x19 x20 x21 x22 </args>
      <args> x23 x24 x25 x26 x27 x28 x29 x30 </args>
      <args> x31 x32 x33 x34 x35 x36 x37 x38 </args>
      <args> x39 x40 x41 x42 x43 x44 x45 x46 </args>
      <args> x47 x48 x49 x50 x51 x52 x53 x54 </args>
      <args> x55 x56 x57 x58 x59 x60 x61 x62 </args>
      <args> x63 x64 x65 x66 x67 x68 x69 x70 </args>
      <args> x71 x72 x73 x74 x75 x76 x77 x78 </args>
      <args> x79 x80 x81 x82 x83 x84 x85 </args>
      <args> x86 x87 x88 x89 x90 x91 x92 x93 </args>
      <args> x94 x95 x96 x97 x98 x99 x100 x101 </args>
      <args> x102 x103 x104 x105 x106 x107 x108 x109 </args>
      <args> x110 x111 x112 x113 x114 x115 x116 </args>
      <args> x117 x118 x119 x120 x121 x122 x123 x124 </args>
      <args> x125 x126 x127 x128 x129 x130 x131 x132 </args>
      <args> x133 x134 x135 x136 x137 x138 x139 x140 </args>
      <args> x8 x16 x39 x47 x71 x86 x102 x117 </args>
      <args> x23 x40 x55 x72 x87 x94 x103 </args>
      <args> x0 x9 x31 x41 x48 x110 x118 x133 </args>
      <args> x17 x24 x56 x63 x73 x104 x111 x125 </args>
      <args> x10 x18 x57 x64 x79 x88 x95 x126 </args>
      <args> x11 x32 x74 x89 x96 x105 x112 </args>
      <args> x33 x49 x65 x80 x90 x97 x106 x119 </args>
      <args> x1 x12 x34 x50 x66 x107 x127 x134 </args>
      <args> x25 x35 x51 x91 x113 x128 x135 </args>
      <args> x19 x26 x36 x42 x52 x75 x81 x98 </args>
      <args> x2 x20 x43 x53 x58 x67 x99 x129 </args>
      <args> x27 x37 x44 x59 x68 x82 x120 x136 </args>
      <args> x28 x45 x60 x76 x108 x121 x130 x137 </args>
      <args> x3 x13 x77 x100 x109 x114 x122 x138 </args>
      <args> x4 x21 x38 x54 x61 x69 x83 x115 </args>
      <args> x5 x29 x62 x92 x101 x116 x123 x131 </args>
      <args> x6 x14 x30 x70 x84 x93 x124 x139 </args>
      <args> x7 x15 x22 x46 x78 x85 x132 x140 </args>
    </group>
  </constraints>
</instance>

